projected/problems_b25_r0_d7_m100_s666/_DIMACS/b25_d7_r0_s666_022.cnf
p cnf 216 345 24
c p show 1 2 3 4 5 6 7 8 9 10 11 12 13 14 15 16 17 18 19 20 21 22 23 24
-25 2 0
-25 20 0
-26 -16 22 0
-27 26 0
-27 25 0
-28 -20 -5 0
-29 4 0
-29 -2 0
-30 29 28 0
-31 30 27 0
-32 -13 -20 0
-33 16 0
-33 24 0
-34 33 0
-34 32 0
-35 -20 -18 0
-36 14 7 0
-37 36 35 0
-38 37 0
-38 34 0
-39 38 0
-39 31 0
-40 -21 0
-40 -2 0
-41 -18 0
-41 19 0
-42 41 0
-42 40 0
-43 18 -19 0
-44 21 2 0
-45 44 0
-45 43 0
-46 45 42 0
-47 22 -1 0
-48 8 0
-48 -3 0
-49 48 0
-49 47 0
-50 49 0
-50 46 0
-51 24 -18 0
-52 1 0
-52 -18 0
-53 52 51 0
-54 -16 0
-54 -18 0
-55 -16 0
-55 18 0
-56 55 0
-56 54 0
-57 16 -18 0
-58 16 18 0
-59 58 0
-59 57 0
-60 59 56 0
-61 60 0
-61 53 0
-62 61 0
-62 50 0
-63 62 0
-63 39 0
-64 -9 0
-64 -16 0
-65 -6 0
-65 17 0
-66 -17 0
-66 6 0
-67 66 65 0
-68 67 0
-68 64 0
-69 1 -6 0
-70 -14 -21 0
-71 21 14 0
-72 71 0
-72 70 0
-73 72 0
-73 69 0
-74 73 0
-74 68 0
-75 9 0
-75 14 0
-76 -23 0
-76 -3 0
-77 76 75 0
-78 -1 0
-78 9 0
-79 -6 0
-79 13 0
-80 79 78 0
-81 6 -13 0
-82 1 -9 0
-83 82 81 0
-84 83 0
-84 80 0
-85 84 77 0
-86 85 0
-86 74 0
-87 -9 -14 0
-88 23 3 0
-89 88 0
-89 87 0
-90 81 0
-90 82 0
-91 78 0
-91 79 0
-92 91 90 0
-93 92 0
-93 89 0
-94 9 16 0
-95 6 -17 0
-96 17 -6 0
-97 96 0
-97 95 0
-98 97 94 0
-99 -1 0
-99 6 0
-100 14 0
-100 21 0
-101 -21 0
-101 -14 0
-102 101 100 0
-103 102 99 0
-104 103 98 0
-105 104 0
-105 93 0
-106 105 86 0
-107 23 -5 0
-108 19 5 0
-109 108 107 0
-110 -10 0
-110 -9 0
-111 -17 0
-111 -20 0
-112 111 0
-112 110 0
-113 17 20 0
-114 10 9 0
-115 114 0
-115 113 0
-116 115 112 0
-117 116 0
-117 109 0
-118 -11 -8 0
-119 21 0
-119 -16 0
-120 119 118 0
-121 -18 -19 0
-122 2 5 0
-123 122 0
-123 121 0
-124 123 0
-124 120 0
-125 124 117 0
-126 125 0
-126 106 0
-127 126 63 0
-128 5 0
-128 -23 0
-129 -22 0
-129 19 0
-130 129 0
-130 128 0
-131 22 0
-131 -6 0
-132 15 0
-132 -10 0
-133 132 0
-133 131 0
-134 133 0
-134 130 0
-135 -22 6 0
-136 -15 10 0
-137 136 135 0
-138 -5 23 0
-139 22 -19 0
-140 139 138 0
-141 140 0
-141 137 0
-142 141 134 0
-143 24 -23 0
-144 23 -24 0
-145 144 0
-145 143 0
-146 19 -2 0
-147 146 145 0
-148 -21 0
-148 4 0
-149 -23 12 0
-150 149 0
-150 148 0
-151 23 0
-151 -12 0
-152 21 -4 0
-153 152 0
-153 151 0
-154 153 150 0
-155 154 0
-155 147 0
-156 155 142 0
-157 16 21 0
-158 22 0
-158 -5 0
-159 158 0
-159 157 0
-160 11 21 0
-161 -1 0
-161 3 0
-162 161 160 0
-163 162 159 0
-164 -6 20 0
-165 -4 -17 0
-166 165 0
-166 164 0
-167 4 0
-167 17 0
-168 6 0
-168 -20 0
-169 168 0
-169 167 0
-170 169 166 0
-171 -12 21 0
-172 -8 -17 0
-173 172 171 0
-174 173 170 0
-175 174 163 0
-176 175 156 0
-177 -9 0
-177 3 0
-178 -20 0
-178 -2 0
-179 178 0
-179 177 0
-180 -5 0
-180 -20 0
-181 16 10 0
-182 181 180 0
-183 182 0
-183 179 0
-184 -8 6 0
-185 3 0
-185 20 0
-186 185 0
-186 184 0
-187 -3 -20 0
-188 8 0
-188 -6 0
-189 188 0
-189 187 0
-190 189 186 0
-191 -3 -5 0
-192 19 0
-192 -12 0
-193 192 191 0
-194 193 0
-194 190 0
-195 194 0
-195 183 0
-196 4 24 0
-197 19 0
-197 -24 0
-198 197 196 0
-199 -19 24 0
-200 -4 0
-200 -24 0
-201 200 199 0
-202 201 0
-202 198 0
-203 21 0
-203 18 0
-204 19 -15 0
-205 204 203 0
-206 205 0
-206 202 0
-207 14 17 0
-208 16 23 0
-209 208 0
-209 207 0
-210 20 0
-210 -11 0
-211 -24 16 0
-212 211 0
-212 210 0
-213 212 0
-213 209 0
-214 213 0
-214 206 0
-215 214 0
-215 195 0
-216 215 176 0
216 0
127 0
-43 -41 0
-41 -43 0
-44 -40 0
-55 -57 0
-54 -58 0
-58 -54 0
-87 -75 0
-76 -88 0
-88 -76 0
-89 -77 0
-77 -89 0
-79 -81 0
-81 -79 0
-82 -78 0
-78 -82 0
-84 -92 0
-85 -93 0
-94 -64 0
-97 -67 0
-98 -68 0
-68 -98 0
-99 -69 0
-72 -102 0
-102 -72 0
-103 -73 0
-73 -103 0
-74 -104 0
-104 -74 0
-113 -111 0
-111 -113 0
-110 -114 0
-114 -110 0
-131 -135 0
-135 -131 0
-132 -136 0
-136 -132 0
-137 -133 0
-133 -137 0
-128 -138 0
-139 -129 0
-129 -139 0
-130 -140 0
-140 -130 0
-151 -149 0
-149 -151 0
-152 -148 0
-167 -165 0
-165 -167 0
-168 -164 0
-185 -187 0
-184 -188 0
-188 -184 0
-199 -197 0
-196 -200 0
