projected/problems_b25_r0_d7_m100_s666/b25_d7_r0_s666_022.smt2
(set-logic QF_UF)
(declare-fun A0 () Bool)
(declare-fun A1 () Bool)
(declare-fun A2 () Bool)
(declare-fun A3 () Bool)
(declare-fun A4 () Bool)
(declare-fun A5 () Bool)
(declare-fun A6 () Bool)
(declare-fun A7 () Bool)
(declare-fun A8 () Bool)
(declare-fun A9 () Bool)
(declare-fun A10 () Bool)
(declare-fun A11 () Bool)
(declare-fun A12 () Bool)
(declare-fun A13 () Bool)
(declare-fun A15 () Bool)
(declare-fun A16 () Bool)
(declare-fun A17 () Bool)
(declare-fun A18 () Bool)
(declare-fun A19 () Bool)
(declare-fun A20 () Bool)
(declare-fun A21 () Bool)
(declare-fun A22 () Bool)
(declare-fun A23 () Bool)
(declare-fun A24 () Bool)
(assert (let ((.def_0 (not A20))) (let ((.def_1 (not A1))) (let ((.def_2 (or .def_1 .def_0))) (let ((.def_3 (not A16))) (let ((.def_4 (or .def_3 A22))) (let ((.def_5 (not .def_4))) (let ((.def_6 (or .def_5 .def_2))) (let ((.def_7 (not .def_6))) (let ((.def_8 (and A20 A4))) (let ((.def_9 (not .def_8))) (let ((.def_10 (not A3))) (let ((.def_11 (or .def_10 A1))) (let ((.def_12 (not .def_11))) (let ((.def_13 (or .def_12 .def_9))) (let ((.def_14 (or .def_13 .def_7))) (let ((.def_15 (not A12))) (let ((.def_16 (or .def_15 .def_0))) (let ((.def_17 (not .def_16))) (let ((.def_18 (and A16 A24))) (let ((.def_19 (not .def_18))) (let ((.def_20 (or .def_19 .def_17))) (let ((.def_21 (not .def_20))) (let ((.def_22 (and A20 A18))) (let ((.def_23 (or A13 A6))) (let ((.def_24 (not .def_23))) (let ((.def_25 (and .def_24 .def_22))) (let ((.def_26 (not .def_25))) (let ((.def_27 (and .def_26 .def_21))) (let ((.def_28 (and .def_27 .def_14))) (let ((.def_29 (not A19))) (let ((.def_30 (or A18 .def_29))) (let ((.def_31 (not .def_30))) (let ((.def_32 (or A21 A1))) (let ((.def_33 (= .def_32 .def_31))) (let ((.def_34 (not A22))) (let ((.def_35 (and .def_34 A0))) (let ((.def_36 (not .def_35))) (let ((.def_37 (not A2))) (let ((.def_38 (and A7 .def_37))) (let ((.def_39 (and .def_38 .def_36))) (let ((.def_40 (not .def_39))) (let ((.def_41 (or .def_40 .def_33))) (let ((.def_42 (not .def_41))) (let ((.def_43 (not A18))) (let ((.def_44 (or A24 .def_43))) (let ((.def_45 (and A0 .def_43))) (let ((.def_46 (or .def_45 .def_44))) (let ((.def_47 (and .def_3 A18))) (let ((.def_48 (and .def_3 .def_43))) (let ((.def_49 (not .def_48))) (let ((.def_50 (= .def_49 .def_47))) (let ((.def_51 (not .def_50))) (let ((.def_52 (and .def_51 .def_46))) (let ((.def_53 (and .def_52 .def_42))) (let ((.def_54 (and .def_53 .def_28))) (let ((.def_55 (not A13))) (let ((.def_56 (not A8))) (let ((.def_57 (or .def_56 .def_55))) (let ((.def_58 (not A23))) (let ((.def_59 (and .def_58 .def_37))) (let ((.def_60 (not .def_59))) (let ((.def_61 (and .def_60 .def_57))) (let ((.def_62 (not .def_61))) (let ((.def_63 (not A5))) (let ((.def_64 (and .def_63 A12))) (let ((.def_65 (not .def_64))) (let ((.def_66 (or A0 .def_56))) (let ((.def_67 (not .def_66))) (let ((.def_68 (= .def_67 .def_65))) (let ((.def_69 (or .def_68 .def_62))) (let ((.def_70 (or A8 A16))) (let ((.def_71 (not A17))) (let ((.def_72 (= .def_71 .def_63))) (let ((.def_73 (or .def_72 .def_70))) (let ((.def_74 (not .def_73))) (let ((.def_75 (not A0))) (let ((.def_76 (and .def_75 A5))) (let ((.def_77 (not A21))) (let ((.def_78 (= .def_77 A13))) (let ((.def_79 (not .def_78))) (let ((.def_80 (or .def_79 .def_76))) (let ((.def_81 (not .def_80))) (let ((.def_82 (and .def_81 .def_74))) (let ((.def_83 (not .def_82))) (let ((.def_84 (= .def_83 .def_69))) (let ((.def_85 (and .def_58 A4))) (let ((.def_86 (or A19 A4))) (let ((.def_87 (not .def_86))) (let ((.def_88 (and .def_87 .def_85))) (let ((.def_89 (or A17 A20))) (let ((.def_90 (not .def_89))) (let ((.def_91 (not A9))) (let ((.def_92 (and .def_91 .def_56))) (let ((.def_93 (not .def_92))) (let ((.def_94 (= .def_93 .def_90))) (let ((.def_95 (or .def_94 .def_88))) (let ((.def_96 (not A7))) (let ((.def_97 (not A10))) (let ((.def_98 (or .def_97 .def_96))) (let ((.def_99 (not .def_98))) (let ((.def_100 (or .def_77 A16))) (let ((.def_101 (and .def_100 .def_99))) (let ((.def_102 (not .def_101))) (let ((.def_103 (and A18 A19))) (let ((.def_104 (not A4))) (let ((.def_105 (and .def_1 .def_104))) (let ((.def_106 (or .def_105 .def_103))) (let ((.def_107 (not .def_106))) (let ((.def_108 (and .def_107 .def_102))) (let ((.def_109 (not .def_108))) (let ((.def_110 (and .def_109 .def_95))) (let ((.def_111 (or .def_110 .def_84))) (let ((.def_112 (not .def_111))) (let ((.def_113 (or .def_112 .def_54))) (let ((.def_114 (not .def_113))) (let ((.def_115 (and A22 .def_63))) (let ((.def_116 (not .def_115))) (let ((.def_117 (and A15 .def_91))) (let ((.def_118 (not .def_117))) (let ((.def_119 (or .def_118 .def_116))) (let ((.def_120 (not .def_119))) (let ((.def_121 (and A4 .def_58))) (let ((.def_122 (or A22 .def_29))) (let ((.def_123 (not .def_122))) (let ((.def_124 (and .def_123 .def_121))) (let ((.def_125 (not .def_124))) (let ((.def_126 (= .def_125 .def_120))) (let ((.def_127 (not A24))) (let ((.def_128 (= .def_58 .def_127))) (let ((.def_129 (and .def_29 A1))) (let ((.def_130 (not .def_129))) (let ((.def_131 (or .def_130 .def_128))) (let ((.def_132 (not .def_131))) (let ((.def_133 (not A11))) (let ((.def_134 (and A23 .def_133))) (let ((.def_135 (not .def_134))) (let ((.def_136 (or A21 .def_10))) (let ((.def_137 (= .def_136 .def_135))) (let ((.def_138 (or .def_137 .def_132))) (let ((.def_139 (and .def_138 .def_126))) (let ((.def_140 (not .def_139))) (let ((.def_141 (or A16 A21))) (let ((.def_142 (not .def_141))) (let ((.def_143 (and A22 .def_104))) (let ((.def_144 (not .def_143))) (let ((.def_145 (or .def_144 .def_142))) (let ((.def_146 (and .def_97 .def_77))) (let ((.def_147 (not .def_146))) (let ((.def_148 (and .def_75 A2))) (let ((.def_149 (or .def_148 .def_147))) (let ((.def_150 (not .def_149))) (let ((.def_151 (and .def_150 .def_145))) (let ((.def_152 (not .def_151))) (let ((.def_153 (and A3 A17))) (let ((.def_154 (not .def_153))) (let ((.def_155 (and A5 .def_0))) (let ((.def_156 (= .def_155 .def_154))) (let ((.def_157 (or .def_133 A21))) (let ((.def_158 (and A7 A17))) (let ((.def_159 (not .def_158))) (let ((.def_160 (or .def_159 .def_157))) (let ((.def_161 (not .def_160))) (let ((.def_162 (and .def_161 .def_156))) (let ((.def_163 (not .def_162))) (let ((.def_164 (or .def_163 .def_152))) (let ((.def_165 (or .def_164 .def_140))) (let ((.def_166 (not .def_165))) (let ((.def_167 (and .def_56 A2))) (let ((.def_168 (and .def_0 .def_1))) (let ((.def_169 (and .def_168 .def_167))) (let ((.def_170 (and .def_104 .def_0))) (let ((.def_171 (or A16 A9))) (let ((.def_172 (or .def_171 .def_170))) (let ((.def_173 (and .def_172 .def_169))) (let ((.def_174 (and A2 A20))) (let ((.def_175 (or .def_96 A5))) (let ((.def_176 (not .def_175))) (let ((.def_177 (= .def_176 .def_174))) (let ((.def_178 (or .def_37 .def_104))) (let ((.def_179 (not .def_178))) (let ((.def_180 (and A19 .def_133))) (let ((.def_181 (not .def_180))) (let ((.def_182 (and .def_181 .def_179))) (let ((.def_183 (or .def_182 .def_177))) (let ((.def_184 (not .def_183))) (let ((.def_185 (and .def_184 .def_173))) (let ((.def_186 (not .def_185))) (let ((.def_187 (or .def_29 A24))) (let ((.def_188 (or A3 A24))) (let ((.def_189 (= .def_188 .def_187))) (let ((.def_190 (not .def_189))) (let ((.def_191 (and A21 A18))) (let ((.def_192 (not .def_191))) (let ((.def_193 (not A15))) (let ((.def_194 (or A19 .def_193))) (let ((.def_195 (not .def_194))) (let ((.def_196 (and .def_195 .def_192))) (let ((.def_197 (or .def_196 .def_190))) (let ((.def_198 (and .def_55 .def_71))) (let ((.def_199 (and .def_3 .def_58))) (let ((.def_200 (or .def_199 .def_198))) (let ((.def_201 (and A20 .def_97))) (let ((.def_202 (or .def_127 A16))) (let ((.def_203 (and .def_202 .def_201))) (let ((.def_204 (not .def_203))) (let ((.def_205 (or .def_204 .def_200))) (let ((.def_206 (or .def_205 .def_197))) (let ((.def_207 (or .def_206 .def_186))) (let ((.def_208 (and .def_207 .def_166))) (let ((.def_209 (or .def_208 .def_114))) (let ((.def_210 (not .def_209))) .def_210))))))))))))))))))))))))))))))))))))))))))))))))))))))))))))))))))))))))))))))))))))))))))))))))))))))))))))))))))))))))))))))))))))))))))))))))))))))))))))))))))))))))))))))))))))))))))))))))))))))))))))))))))))
(check-sat)
